NAME : sim51.72334.tour
COMMENT : Length = 72334
COMMENT : Found by LKH [Keld Helsgaun] Wed Aug 29 08:55:03 2018
TYPE : TOUR
DIMENSION : 51
TOUR_SECTION
1
25
28
50
41
31
9
29
2
18
12
37
49
13
46
45
27
3
7
51
34
11
8
14
47
5
17
42
10
23
24
30
39
26
32
22
16
36
4
20
48
21
6
33
44
43
19
40
15
35
38
-1
EOF
